(set-info :smt-lib-version 2.6)
(set-logic BPA)
(set-info :source | Kaya Guvendi and Ethan Bogle |)
(set-info :category "crafted")
(set-info :status unsat)
(declare-const a Int)
(declare-const b Int)
(declare-const c Int)
(assert (not (= b c)))
(assert (let ((x (Create a b)) (y (Create a c))) (= 0 (-p x y))))
(check-sat)
(exit)
